\ Model shortest_paths
\ LP format - for model browsing. Use MPS format to capture full model detail.
Minimize
  1.8 z[1_0,1^0] + 2.545584412271571 z[1_1,1^0]
   + 3.117691453623979 z[1_2,1^0] + 3.6 z[1_3,1^0]
   + 4.024922359499622 z[1_4,1^0] + 1.131370849898476 z[2_0,2^0]
   + 0.8 z[2_0,2^1] + 1.385640646055102 z[2_1,2^0]
   + 1.131370849898476 z[2_1,2^1] + 0.8 z[2_1,2^2] + 1.6 z[2_2,2^0]
   + 1.385640646055102 z[2_2,2^1] + 1.131370849898476 z[2_2,2^2]
   + 0.8 z[2_2,2^3] + 1.272792206135786 z[3_0,3^0] + 0.9 z[3_0,3^1]
   + 1.55884572681199 z[3_1,3^0] + 1.272792206135786 z[3_1,3^1]
   + 0.9 z[3_1,3^2] + 0.4242640687119286 z[4_0,4^0] + 0.3 z[4_0,4^1]
   + 0.1 z[5_0,5^0] + 0.5 z[6_0,6^0] + 0.2 z[7_0,7^0]
Subject To
 UB-z[1_0,1^0,4]: x[1_0,1^0,4] - z[1_0,1^0] <= 0
 UB-z[1_0,1^0,5]: x[1_0,1^0,5] - z[1_0,1^0] <= 0
 UB-z[1_0,1^0,6]: x[1_0,1^0,6] - z[1_0,1^0] <= 0
 UB-z[1_0,1^0,7]: x[1_0,1^0,7] - z[1_0,1^0] <= 0
 UB-z[1_1,1^0,4]: x[1_1,1^0,4] - z[1_1,1^0] <= 0
 UB-z[1_1,1^0,5]: x[1_1,1^0,5] - z[1_1,1^0] <= 0
 UB-z[1_1,1^0,6]: x[1_1,1^0,6] - z[1_1,1^0] <= 0
 UB-z[1_1,1^0,7]: x[1_1,1^0,7] - z[1_1,1^0] <= 0
 UB-z[1_2,1^0,4]: x[1_2,1^0,4] - z[1_2,1^0] <= 0
 UB-z[1_2,1^0,5]: x[1_2,1^0,5] - z[1_2,1^0] <= 0
 UB-z[1_2,1^0,6]: x[1_2,1^0,6] - z[1_2,1^0] <= 0
 UB-z[1_2,1^0,7]: x[1_2,1^0,7] - z[1_2,1^0] <= 0
 UB-z[1_3,1^0,4]: x[1_3,1^0,4] - z[1_3,1^0] <= 0
 UB-z[1_3,1^0,5]: x[1_3,1^0,5] - z[1_3,1^0] <= 0
 UB-z[1_3,1^0,6]: x[1_3,1^0,6] - z[1_3,1^0] <= 0
 UB-z[1_3,1^0,7]: x[1_3,1^0,7] - z[1_3,1^0] <= 0
 UB-z[1_4,1^0,4]: x[1_4,1^0,4] - z[1_4,1^0] <= 0
 UB-z[1_4,1^0,5]: x[1_4,1^0,5] - z[1_4,1^0] <= 0
 UB-z[1_4,1^0,6]: x[1_4,1^0,6] - z[1_4,1^0] <= 0
 UB-z[1_4,1^0,7]: x[1_4,1^0,7] - z[1_4,1^0] <= 0
 UB-z[2_0,2^0,4]: x[2_0,2^0,4] - z[2_0,2^0] <= 0
 UB-z[2_0,2^0,5]: x[2_0,2^0,5] - z[2_0,2^0] <= 0
 UB-z[2_0,2^1,4]: x[2_0,2^1,4] - z[2_0,2^1] <= 0
 UB-z[2_0,2^1,5]: x[2_0,2^1,5] - z[2_0,2^1] <= 0
 UB-z[2_0,2^2,4]: x[2_0,2^2,4] - z[2_0,2^2] <= 0
 UB-z[2_0,2^2,5]: x[2_0,2^2,5] - z[2_0,2^2] <= 0
 UB-z[2_1,2^0,4]: x[2_1,2^0,4] - z[2_1,2^0] <= 0
 UB-z[2_1,2^0,5]: x[2_1,2^0,5] - z[2_1,2^0] <= 0
 UB-z[2_1,2^1,4]: x[2_1,2^1,4] - z[2_1,2^1] <= 0
 UB-z[2_1,2^1,5]: x[2_1,2^1,5] - z[2_1,2^1] <= 0
 UB-z[2_1,2^2,4]: x[2_1,2^2,4] - z[2_1,2^2] <= 0
 UB-z[2_1,2^2,5]: x[2_1,2^2,5] - z[2_1,2^2] <= 0
 UB-z[2_1,2^3,4]: x[2_1,2^3,4] - z[2_1,2^3] <= 0
 UB-z[2_1,2^3,5]: x[2_1,2^3,5] - z[2_1,2^3] <= 0
 UB-z[2_2,2^0,4]: x[2_2,2^0,4] - z[2_2,2^0] <= 0
 UB-z[2_2,2^0,5]: x[2_2,2^0,5] - z[2_2,2^0] <= 0
 UB-z[2_2,2^1,4]: x[2_2,2^1,4] - z[2_2,2^1] <= 0
 UB-z[2_2,2^1,5]: x[2_2,2^1,5] - z[2_2,2^1] <= 0
 UB-z[2_2,2^2,4]: x[2_2,2^2,4] - z[2_2,2^2] <= 0
 UB-z[2_2,2^2,5]: x[2_2,2^2,5] - z[2_2,2^2] <= 0
 UB-z[2_2,2^3,4]: x[2_2,2^3,4] - z[2_2,2^3] <= 0
 UB-z[2_2,2^3,5]: x[2_2,2^3,5] - z[2_2,2^3] <= 0
 UB-z[2_2,2^4,4]: x[2_2,2^4,4] - z[2_2,2^4] <= 0
 UB-z[2_2,2^4,5]: x[2_2,2^4,5] - z[2_2,2^4] <= 0
 UB-z[3_0,3^0,6]: x[3_0,3^0,6] - z[3_0,3^0] <= 0
 UB-z[3_0,3^0,7]: x[3_0,3^0,7] - z[3_0,3^0] <= 0
 UB-z[3_0,3^1,6]: x[3_0,3^1,6] - z[3_0,3^1] <= 0
 UB-z[3_0,3^1,7]: x[3_0,3^1,7] - z[3_0,3^1] <= 0
 UB-z[3_0,3^2,6]: x[3_0,3^2,6] - z[3_0,3^2] <= 0
 UB-z[3_0,3^2,7]: x[3_0,3^2,7] - z[3_0,3^2] <= 0
 UB-z[3_1,3^0,6]: x[3_1,3^0,6] - z[3_1,3^0] <= 0
 UB-z[3_1,3^0,7]: x[3_1,3^0,7] - z[3_1,3^0] <= 0
 UB-z[3_1,3^1,6]: x[3_1,3^1,6] - z[3_1,3^1] <= 0
 UB-z[3_1,3^1,7]: x[3_1,3^1,7] - z[3_1,3^1] <= 0
 UB-z[3_1,3^2,6]: x[3_1,3^2,6] - z[3_1,3^2] <= 0
 UB-z[3_1,3^2,7]: x[3_1,3^2,7] - z[3_1,3^2] <= 0
 UB-z[3_1,3^3,6]: x[3_1,3^3,6] - z[3_1,3^3] <= 0
 UB-z[3_1,3^3,7]: x[3_1,3^3,7] - z[3_1,3^3] <= 0
 UB-z[4_0,4^0,4]: x[4_0,4^0,4] - z[4_0,4^0] <= 0
 UB-z[4_0,4^1,4]: x[4_0,4^1,4] - z[4_0,4^1] <= 0
 UB-z[4_0,4^2,4]: x[4_0,4^2,4] - z[4_0,4^2] <= 0
 UB-z[5_0,5^0,5]: x[5_0,5^0,5] - z[5_0,5^0] <= 0
 UB-z[5_0,5^1,5]: x[5_0,5^1,5] - z[5_0,5^1] <= 0
 UB-z[6_0,6^0,6]: x[6_0,6^0,6] - z[6_0,6^0] <= 0
 UB-z[6_0,6^1,6]: x[6_0,6^1,6] - z[6_0,6^1] <= 0
 UB-z[7_0,7^0,7]: x[7_0,7^0,7] - z[7_0,7^0] <= 0
 UB-z[7_0,7^1,7]: x[7_0,7^1,7] - z[7_0,7^1] <= 0
 netflow-multi[1_0,4]: x[1_0,1^0,4] - x[2^0,1_0,4] = 0
 netflow-multi[1_0,5]: x[1_0,1^0,5] - x[2^0,1_0,5] = 0
 netflow-multi[1_0,6]: x[1_0,1^0,6] - x[3^0,1_0,6] = 0
 netflow-multi[1_0,7]: x[1_0,1^0,7] - x[3^0,1_0,7] = 0
 netflow-multi[1_1,4]: x[1_1,1^0,4] - x[2^1,1_1,4] = 0
 netflow-multi[1_1,5]: x[1_1,1^0,5] - x[2^1,1_1,5] = 0
 netflow-multi[1_1,6]: x[1_1,1^0,6] - x[3^1,1_1,6] = 0
 netflow-multi[1_1,7]: x[1_1,1^0,7] - x[3^1,1_1,7] = 0
 netflow-multi[1_2,4]: x[1_2,1^0,4] - x[2^2,1_2,4] = 0
 netflow-multi[1_2,5]: x[1_2,1^0,5] - x[2^2,1_2,5] = 0
 netflow-multi[1_2,6]: x[1_2,1^0,6] - x[3^2,1_2,6] = 0
 netflow-multi[1_2,7]: x[1_2,1^0,7] - x[3^2,1_2,7] = 0
 netflow-multi[1_3,4]: x[1_3,1^0,4] - x[2^3,1_3,4] = 0
 netflow-multi[1_3,5]: x[1_3,1^0,5] - x[2^3,1_3,5] = 0
 netflow-multi[1_3,6]: x[1_3,1^0,6] - x[3^3,1_3,6] = 0
 netflow-multi[1_3,7]: x[1_3,1^0,7] - x[3^3,1_3,7] = 0
 netflow-multi[1_4,4]: x[1_4,1^0,4] - x[2^4,1_4,4] = 0
 netflow-multi[1_4,5]: x[1_4,1^0,5] - x[2^4,1_4,5] = 0
 netflow-multi[1_4,6]: x[1_4,1^0,6] - x[3^3,1_4,6] = 0
 netflow-multi[1_4,7]: x[1_4,1^0,7] - x[3^3,1_4,7] = 0
 netflow-multi[1^0,4]: - x[1_0,1^0,4] - x[1_1,1^0,4] - x[1_2,1^0,4]
   - x[1_3,1^0,4] - x[1_4,1^0,4] = -1
 netflow-multi[1^0,5]: - x[1_0,1^0,5] - x[1_1,1^0,5] - x[1_2,1^0,5]
   - x[1_3,1^0,5] - x[1_4,1^0,5] = -1
 netflow-multi[1^0,6]: - x[1_0,1^0,6] - x[1_1,1^0,6] - x[1_2,1^0,6]
   - x[1_3,1^0,6] - x[1_4,1^0,6] = -1
 netflow-multi[1^0,7]: - x[1_0,1^0,7] - x[1_1,1^0,7] - x[1_2,1^0,7]
   - x[1_3,1^0,7] - x[1_4,1^0,7] = -1
 netflow-multi[2_0,4]: x[2_0,2^0,4] + x[2_0,2^1,4] + x[2_0,2^2,4]
   - x[4^0,2_0,4] = 0
 netflow-multi[2_0,5]: x[2_0,2^0,5] + x[2_0,2^1,5] + x[2_0,2^2,5]
   - x[5^0,2_0,5] = 0
 netflow-multi[2_1,4]: x[2_1,2^0,4] + x[2_1,2^1,4] + x[2_1,2^2,4]
   + x[2_1,2^3,4] - x[4^1,2_1,4] = 0
 netflow-multi[2_1,5]: x[2_1,2^0,5] + x[2_1,2^1,5] + x[2_1,2^2,5]
   + x[2_1,2^3,5] - x[5^1,2_1,5] = 0
 netflow-multi[2_2,4]: x[2_2,2^0,4] + x[2_2,2^1,4] + x[2_2,2^2,4]
   + x[2_2,2^3,4] + x[2_2,2^4,4] - x[4^2,2_2,4] = 0
 netflow-multi[2_2,5]: x[2_2,2^0,5] + x[2_2,2^1,5] + x[2_2,2^2,5]
   + x[2_2,2^3,5] + x[2_2,2^4,5] - x[5^1,2_2,5] = 0
 netflow-multi[2^0,4]: - x[2_0,2^0,4] - x[2_1,2^0,4] - x[2_2,2^0,4]
   + x[2^0,1_0,4] = 0
 netflow-multi[2^0,5]: - x[2_0,2^0,5] - x[2_1,2^0,5] - x[2_2,2^0,5]
   + x[2^0,1_0,5] = 0
 netflow-multi[2^1,4]: - x[2_0,2^1,4] - x[2_1,2^1,4] - x[2_2,2^1,4]
   + x[2^1,1_1,4] = 0
 netflow-multi[2^1,5]: - x[2_0,2^1,5] - x[2_1,2^1,5] - x[2_2,2^1,5]
   + x[2^1,1_1,5] = 0
 netflow-multi[2^2,4]: - x[2_0,2^2,4] - x[2_1,2^2,4] - x[2_2,2^2,4]
   + x[2^2,1_2,4] = 0
 netflow-multi[2^2,5]: - x[2_0,2^2,5] - x[2_1,2^2,5] - x[2_2,2^2,5]
   + x[2^2,1_2,5] = 0
 netflow-multi[2^3,4]: - x[2_1,2^3,4] - x[2_2,2^3,4] + x[2^3,1_3,4] = 0
 netflow-multi[2^3,5]: - x[2_1,2^3,5] - x[2_2,2^3,5] + x[2^3,1_3,5] = 0
 netflow-multi[2^4,4]: - x[2_2,2^4,4] + x[2^4,1_4,4] = 0
 netflow-multi[2^4,5]: - x[2_2,2^4,5] + x[2^4,1_4,5] = 0
 netflow-multi[3_0,6]: x[3_0,3^0,6] + x[3_0,3^1,6] + x[3_0,3^2,6]
   - x[6^0,3_0,6] = 0
 netflow-multi[3_0,7]: x[3_0,3^0,7] + x[3_0,3^1,7] + x[3_0,3^2,7]
   - x[7^0,3_0,7] = 0
 netflow-multi[3_1,6]: x[3_1,3^0,6] + x[3_1,3^1,6] + x[3_1,3^2,6]
   + x[3_1,3^3,6] - x[6^1,3_1,6] = 0
 netflow-multi[3_1,7]: x[3_1,3^0,7] + x[3_1,3^1,7] + x[3_1,3^2,7]
   + x[3_1,3^3,7] - x[7^1,3_1,7] = 0
 netflow-multi[3^0,6]: - x[3_0,3^0,6] - x[3_1,3^0,6] + x[3^0,1_0,6] = 0
 netflow-multi[3^0,7]: - x[3_0,3^0,7] - x[3_1,3^0,7] + x[3^0,1_0,7] = 0
 netflow-multi[3^1,6]: - x[3_0,3^1,6] - x[3_1,3^1,6] + x[3^1,1_1,6] = 0
 netflow-multi[3^1,7]: - x[3_0,3^1,7] - x[3_1,3^1,7] + x[3^1,1_1,7] = 0
 netflow-multi[3^2,6]: - x[3_0,3^2,6] - x[3_1,3^2,6] + x[3^2,1_2,6] = 0
 netflow-multi[3^2,7]: - x[3_0,3^2,7] - x[3_1,3^2,7] + x[3^2,1_2,7] = 0
 netflow-multi[3^3,6]: - x[3_1,3^3,6] + x[3^3,1_3,6] + x[3^3,1_4,6] = 0
 netflow-multi[3^3,7]: - x[3_1,3^3,7] + x[3^3,1_3,7] + x[3^3,1_4,7] = 0
 netflow-multi[4_0,4]: x[4_0,4^0,4] + x[4_0,4^1,4] + x[4_0,4^2,4] = 1
 netflow-multi[4^0,4]: - x[4_0,4^0,4] + x[4^0,2_0,4] = 0
 netflow-multi[4^1,4]: - x[4_0,4^1,4] + x[4^1,2_1,4] = 0
 netflow-multi[4^2,4]: - x[4_0,4^2,4] + x[4^2,2_2,4] = 0
 netflow-multi[5_0,5]: x[5_0,5^0,5] + x[5_0,5^1,5] = 1
 netflow-multi[5^0,5]: - x[5_0,5^0,5] + x[5^0,2_0,5] = 0
 netflow-multi[5^1,5]: - x[5_0,5^1,5] + x[5^1,2_1,5] + x[5^1,2_2,5] = 0
 netflow-multi[6_0,6]: x[6_0,6^0,6] + x[6_0,6^1,6] = 1
 netflow-multi[6^0,6]: - x[6_0,6^0,6] + x[6^0,3_0,6] = 0
 netflow-multi[6^1,6]: - x[6_0,6^1,6] + x[6^1,3_1,6] = 0
 netflow-multi[7_0,7]: x[7_0,7^0,7] + x[7_0,7^1,7] = 1
 netflow-multi[7^0,7]: - x[7_0,7^0,7] + x[7^0,3_0,7] = 0
 netflow-multi[7^1,7]: - x[7_0,7^1,7] + x[7^1,3_1,7] = 0
Bounds
Binaries
 z[1_0,1^0] z[1_1,1^0] z[1_2,1^0] z[1_3,1^0] z[1_4,1^0] z[2_0,2^0]
 z[2_0,2^1] z[2_0,2^2] z[2_1,2^0] z[2_1,2^1] z[2_1,2^2] z[2_1,2^3]
 z[2_2,2^0] z[2_2,2^1] z[2_2,2^2] z[2_2,2^3] z[2_2,2^4] z[3_0,3^0]
 z[3_0,3^1] z[3_0,3^2] z[3_1,3^0] z[3_1,3^1] z[3_1,3^2] z[3_1,3^3]
 z[4_0,4^0] z[4_0,4^1] z[4_0,4^2] z[5_0,5^0] z[5_0,5^1] z[6_0,6^0]
 z[6_0,6^1] z[7_0,7^0] z[7_0,7^1]
End
